# Solution for model TSP0
# Objective value = 1.7287988287141595e+03
B0(17) 0
B1(17) 0
B2(17) 1
B3(17) 0
B4(17) 1
B5(17) 0
B6(17) 1
B7(17) 1
B8(17) 0
B9(17) 0
B10(17) 1
B11(17) 1
B12(17) 0
B13(17) 0
B14(17) 0
